
Gurobi 7.0.2 (linux64, Matlab) logging started Sun Sep  2 08:57:00 2018


Gurobi 7.0.2 (linux64) logging started Sun Sep  2 08:57:00 2018

Optimize a model with 5698 rows, 22218 columns and 85413 nonzeros
Coefficient statistics:
  Matrix range     [1e+00, 1e+00]
  Objective range  [2e+00, 1e+02]
  Bounds range     [1e+00, 1e+00]
  RHS range        [1e+00, 1e+00]
Iteration    Objective       Primal Inf.    Dual Inf.      Time
       0    1.0409940e+03   0.000000e+00   0.000000e+00      0s

Solved in 0 iterations and 0.05 seconds
Optimal objective  1.040994041e+03
